gr21_out.lp
\ Model TSP
\ LP format - for model browsing. Use MPS format to capture full model detail.
Minimize
  510 0_1 + 635 0_2 + 91 0_3 + 385 0_4 + 155 0_5 + 110 0_6 + 130 0_7
   + 490 0_8 + 370 0_9 + 155 0_10 + 68 0_11 + 610 0_12 + 655 0_13
   + 480 0_14 + 265 0_15 + 255 0_16 + 450 0_17 + 170 0_18 + 240 0_19
   + 380 0_20 + 355 1_2 + 415 1_3 + 585 1_4 + 475 1_5 + 480 1_6 + 500 1_7
   + 605 1_8 + 320 1_9 + 380 1_10 + 440 1_11 + 360 1_12 + 235 1_13
   + 81 1_14 + 480 1_15 + 440 1_16 + 270 1_17 + 445 1_18 + 290 1_19
   + 140 1_20 + 605 2_3 + 390 2_4 + 495 2_5 + 570 2_6 + 540 2_7 + 295 2_8
   + 700 2_9 + 640 2_10 + 575 2_11 + 705 2_12 + 585 2_13 + 435 2_14
   + 420 2_15 + 755 2_16 + 625 2_17 + 750 2_18 + 590 2_19 + 495 2_20
   + 350 3_4 + 120 3_5 + 78 3_6 + 97 3_7 + 460 3_8 + 280 3_9 + 63 3_10
   + 27 3_11 + 520 3_12 + 555 3_13 + 380 3_14 + 235 3_15 + 235 3_16
   + 345 3_17 + 160 3_18 + 140 3_19 + 280 3_20 + 240 4_5 + 320 4_6
   + 285 4_7 + 120 4_8 + 590 4_9 + 430 4_10 + 320 4_11 + 835 4_12
   + 750 4_13 + 575 4_14 + 125 4_15 + 650 4_16 + 660 4_17 + 495 4_18
   + 480 4_19 + 480 4_20 + 96 5_6 + 36 5_7 + 350 5_8 + 365 5_9 + 200 5_10
   + 91 5_11 + 605 5_12 + 615 5_13 + 440 5_14 + 125 5_15 + 370 5_16
   + 430 5_17 + 265 5_18 + 255 5_19 + 340 5_20 + 29 6_7 + 425 6_8 + 350 6_9
   + 160 6_10 + 48 6_11 + 590 6_12 + 625 6_13 + 455 6_14 + 200 6_15
   + 320 6_16 + 420 6_17 + 220 6_18 + 205 6_19 + 350 6_20 + 390 7_8
   + 370 7_9 + 175 7_10 + 67 7_11 + 610 7_12 + 645 7_13 + 465 7_14
   + 165 7_15 + 350 7_16 + 440 7_17 + 240 7_18 + 220 7_19 + 370 7_20
   + 625 8_9 + 535 8_10 + 430 8_11 + 865 8_12 + 775 8_13 + 600 8_14
   + 230 8_15 + 680 8_16 + 690 8_17 + 600 8_18 + 515 8_19 + 505 8_20
   + 240 9_10 + 300 9_11 + 250 9_12 + 285 9_13 + 245 9_14 + 475 9_15
   + 150 9_16 + 77 9_17 + 235 9_18 + 150 9_19 + 185 9_20 + 90 10_11
   + 480 10_12 + 515 10_13 + 345 10_14 + 310 10_15 + 175 10_16 + 310 10_17
   + 125 10_18 + 100 10_19 + 240 10_20 + 545 11_12 + 585 11_13 + 415 11_14
   + 205 11_15 + 265 11_16 + 380 11_17 + 170 11_18 + 170 11_19 + 310 11_20
   + 190 12_13 + 295 12_14 + 715 12_15 + 400 12_16 + 180 12_17 + 485 12_18
   + 390 12_19 + 345 12_20 + 170 13_14 + 650 13_15 + 435 13_16 + 215 13_17
   + 525 13_18 + 425 13_19 + 280 13_20 + 475 14_15 + 385 14_16 + 190 14_17
   + 405 14_18 + 255 14_19 + 105 14_20 + 485 15_16 + 545 15_17 + 375 15_18
   + 395 15_19 + 380 15_20 + 225 16_17 + 87 16_18 + 205 16_19 + 280 16_20
   + 315 17_18 + 220 17_19 + 165 17_20 + 155 18_19 + 305 18_20 + 150 19_20
Subject To
 R0: 0_1 + 0_2 + 0_3 + 0_4 + 0_5 + 0_6 + 0_7 + 0_8 + 0_9 + 0_10 + 0_11
   + 0_12 + 0_13 + 0_14 + 0_15 + 0_16 + 0_17 + 0_18 + 0_19 + 0_20 = 2
 R1: 0_1 + 1_2 + 1_3 + 1_4 + 1_5 + 1_6 + 1_7 + 1_8 + 1_9 + 1_10 + 1_11
   + 1_12 + 1_13 + 1_14 + 1_15 + 1_16 + 1_17 + 1_18 + 1_19 + 1_20 = 2
 R2: 0_2 + 1_2 + 2_3 + 2_4 + 2_5 + 2_6 + 2_7 + 2_8 + 2_9 + 2_10 + 2_11
   + 2_12 + 2_13 + 2_14 + 2_15 + 2_16 + 2_17 + 2_18 + 2_19 + 2_20 = 2
 R3: 0_3 + 1_3 + 2_3 + 3_4 + 3_5 + 3_6 + 3_7 + 3_8 + 3_9 + 3_10 + 3_11
   + 3_12 + 3_13 + 3_14 + 3_15 + 3_16 + 3_17 + 3_18 + 3_19 + 3_20 = 2
 R4: 0_4 + 1_4 + 2_4 + 3_4 + 4_5 + 4_6 + 4_7 + 4_8 + 4_9 + 4_10 + 4_11
   + 4_12 + 4_13 + 4_14 + 4_15 + 4_16 + 4_17 + 4_18 + 4_19 + 4_20 = 2
 R5: 0_5 + 1_5 + 2_5 + 3_5 + 4_5 + 5_6 + 5_7 + 5_8 + 5_9 + 5_10 + 5_11
   + 5_12 + 5_13 + 5_14 + 5_15 + 5_16 + 5_17 + 5_18 + 5_19 + 5_20 = 2
 R6: 0_6 + 1_6 + 2_6 + 3_6 + 4_6 + 5_6 + 6_7 + 6_8 + 6_9 + 6_10 + 6_11
   + 6_12 + 6_13 + 6_14 + 6_15 + 6_16 + 6_17 + 6_18 + 6_19 + 6_20 = 2
 R7: 0_7 + 1_7 + 2_7 + 3_7 + 4_7 + 5_7 + 6_7 + 7_8 + 7_9 + 7_10 + 7_11
   + 7_12 + 7_13 + 7_14 + 7_15 + 7_16 + 7_17 + 7_18 + 7_19 + 7_20 = 2
 R8: 0_8 + 1_8 + 2_8 + 3_8 + 4_8 + 5_8 + 6_8 + 7_8 + 8_9 + 8_10 + 8_11
   + 8_12 + 8_13 + 8_14 + 8_15 + 8_16 + 8_17 + 8_18 + 8_19 + 8_20 = 2
 R9: 0_9 + 1_9 + 2_9 + 3_9 + 4_9 + 5_9 + 6_9 + 7_9 + 8_9 + 9_10 + 9_11
   + 9_12 + 9_13 + 9_14 + 9_15 + 9_16 + 9_17 + 9_18 + 9_19 + 9_20 = 2
 R10: 0_10 + 1_10 + 2_10 + 3_10 + 4_10 + 5_10 + 6_10 + 7_10 + 8_10 + 9_10
   + 10_11 + 10_12 + 10_13 + 10_14 + 10_15 + 10_16 + 10_17 + 10_18 + 10_19
   + 10_20 = 2
 R11: 0_11 + 1_11 + 2_11 + 3_11 + 4_11 + 5_11 + 6_11 + 7_11 + 8_11 + 9_11
   + 10_11 + 11_12 + 11_13 + 11_14 + 11_15 + 11_16 + 11_17 + 11_18 + 11_19
   + 11_20 = 2
 R12: 0_12 + 1_12 + 2_12 + 3_12 + 4_12 + 5_12 + 6_12 + 7_12 + 8_12 + 9_12
   + 10_12 + 11_12 + 12_13 + 12_14 + 12_15 + 12_16 + 12_17 + 12_18 + 12_19
   + 12_20 = 2
 R13: 0_13 + 1_13 + 2_13 + 3_13 + 4_13 + 5_13 + 6_13 + 7_13 + 8_13 + 9_13
   + 10_13 + 11_13 + 12_13 + 13_14 + 13_15 + 13_16 + 13_17 + 13_18 + 13_19
   + 13_20 = 2
 R14: 0_14 + 1_14 + 2_14 + 3_14 + 4_14 + 5_14 + 6_14 + 7_14 + 8_14 + 9_14
   + 10_14 + 11_14 + 12_14 + 13_14 + 14_15 + 14_16 + 14_17 + 14_18 + 14_19
   + 14_20 = 2
 R15: 0_15 + 1_15 + 2_15 + 3_15 + 4_15 + 5_15 + 6_15 + 7_15 + 8_15 + 9_15
   + 10_15 + 11_15 + 12_15 + 13_15 + 14_15 + 15_16 + 15_17 + 15_18 + 15_19
   + 15_20 = 2
 R16: 0_16 + 1_16 + 2_16 + 3_16 + 4_16 + 5_16 + 6_16 + 7_16 + 8_16 + 9_16
   + 10_16 + 11_16 + 12_16 + 13_16 + 14_16 + 15_16 + 16_17 + 16_18 + 16_19
   + 16_20 = 2
 R17: 0_17 + 1_17 + 2_17 + 3_17 + 4_17 + 5_17 + 6_17 + 7_17 + 8_17 + 9_17
   + 10_17 + 11_17 + 12_17 + 13_17 + 14_17 + 15_17 + 16_17 + 17_18 + 17_19
   + 17_20 = 2
 R18: 0_18 + 1_18 + 2_18 + 3_18 + 4_18 + 5_18 + 6_18 + 7_18 + 8_18 + 9_18
   + 10_18 + 11_18 + 12_18 + 13_18 + 14_18 + 15_18 + 16_18 + 17_18 + 18_19
   + 18_20 = 2
 R19: 0_19 + 1_19 + 2_19 + 3_19 + 4_19 + 5_19 + 6_19 + 7_19 + 8_19 + 9_19
   + 10_19 + 11_19 + 12_19 + 13_19 + 14_19 + 15_19 + 16_19 + 17_19 + 18_19
   + 19_20 = 2
 R20: 0_20 + 1_20 + 2_20 + 3_20 + 4_20 + 5_20 + 6_20 + 7_20 + 8_20 + 9_20
   + 10_20 + 11_20 + 12_20 + 13_20 + 14_20 + 15_20 + 16_20 + 17_20 + 18_20
   + 19_20 = 2
 R21: 510 0_1 + 635 0_2 + 91 0_3 + 385 0_4 + 155 0_5 + 110 0_6 + 130 0_7
   + 490 0_8 + 370 0_9 + 155 0_10 + 68 0_11 + 610 0_12 + 655 0_13
   + 480 0_14 + 265 0_15 + 255 0_16 + 450 0_17 + 170 0_18 + 240 0_19
   + 380 0_20 + 355 1_2 + 415 1_3 + 585 1_4 + 475 1_5 + 480 1_6 + 500 1_7
   + 605 1_8 + 320 1_9 + 380 1_10 + 440 1_11 + 360 1_12 + 235 1_13
   + 81 1_14 + 480 1_15 + 440 1_16 + 270 1_17 + 445 1_18 + 290 1_19
   + 140 1_20 + 605 2_3 + 390 2_4 + 495 2_5 + 570 2_6 + 540 2_7 + 295 2_8
   + 700 2_9 + 640 2_10 + 575 2_11 + 705 2_12 + 585 2_13 + 435 2_14
   + 420 2_15 + 755 2_16 + 625 2_17 + 750 2_18 + 590 2_19 + 495 2_20
   + 350 3_4 + 120 3_5 + 78 3_6 + 97 3_7 + 460 3_8 + 280 3_9 + 63 3_10
   + 27 3_11 + 520 3_12 + 555 3_13 + 380 3_14 + 235 3_15 + 235 3_16
   + 345 3_17 + 160 3_18 + 140 3_19 + 280 3_20 + 240 4_5 + 320 4_6
   + 285 4_7 + 120 4_8 + 590 4_9 + 430 4_10 + 320 4_11 + 835 4_12
   + 750 4_13 + 575 4_14 + 125 4_15 + 650 4_16 + 660 4_17 + 495 4_18
   + 480 4_19 + 480 4_20 + 96 5_6 + 36 5_7 + 350 5_8 + 365 5_9 + 200 5_10
   + 91 5_11 + 605 5_12 + 615 5_13 + 440 5_14 + 125 5_15 + 370 5_16
   + 430 5_17 + 265 5_18 + 255 5_19 + 340 5_20 + 29 6_7 + 425 6_8 + 350 6_9
   + 160 6_10 + 48 6_11 + 590 6_12 + 625 6_13 + 455 6_14 + 200 6_15
   + 320 6_16 + 420 6_17 + 220 6_18 + 205 6_19 + 350 6_20 + 390 7_8
   + 370 7_9 + 175 7_10 + 67 7_11 + 610 7_12 + 645 7_13 + 465 7_14
   + 165 7_15 + 350 7_16 + 440 7_17 + 240 7_18 + 220 7_19 + 370 7_20
   + 625 8_9 + 535 8_10 + 430 8_11 + 865 8_12 + 775 8_13 + 600 8_14
   + 230 8_15 + 680 8_16 + 690 8_17 + 600 8_18 + 515 8_19 + 505 8_20
   + 240 9_10 + 300 9_11 + 250 9_12 + 285 9_13 + 245 9_14 + 475 9_15
   + 150 9_16 + 77 9_17 + 235 9_18 + 150 9_19 + 185 9_20 + 90 10_11
   + 480 10_12 + 515 10_13 + 345 10_14 + 310 10_15 + 175 10_16 + 310 10_17
   + 125 10_18 + 100 10_19 + 240 10_20 + 545 11_12 + 585 11_13 + 415 11_14
   + 205 11_15 + 265 11_16 + 380 11_17 + 170 11_18 + 170 11_19 + 310 11_20
   + 190 12_13 + 295 12_14 + 715 12_15 + 400 12_16 + 180 12_17 + 485 12_18
   + 390 12_19 + 345 12_20 + 170 13_14 + 650 13_15 + 435 13_16 + 215 13_17
   + 525 13_18 + 425 13_19 + 280 13_20 + 475 14_15 + 385 14_16 + 190 14_17
   + 405 14_18 + 255 14_19 + 105 14_20 + 485 15_16 + 545 15_17 + 375 15_18
   + 395 15_19 + 380 15_20 + 225 16_17 + 87 16_18 + 205 16_19 + 280 16_20
   + 315 17_18 + 220 17_19 + 165 17_20 + 155 18_19 + 305 18_20 + 150 19_20
   <= 4322
Bounds
Binaries
 0_1 0_2 0_3 0_4 0_5 0_6 0_7 0_8 0_9 0_10 0_11 0_12 0_13 0_14 0_15 0_16
 0_17 0_18 0_19 0_20 1_2 1_3 1_4 1_5 1_6 1_7 1_8 1_9 1_10 1_11 1_12 1_13
 1_14 1_15 1_16 1_17 1_18 1_19 1_20 2_3 2_4 2_5 2_6 2_7 2_8 2_9 2_10 2_11
 2_12 2_13 2_14 2_15 2_16 2_17 2_18 2_19 2_20 3_4 3_5 3_6 3_7 3_8 3_9 3_10
 3_11 3_12 3_13 3_14 3_15 3_16 3_17 3_18 3_19 3_20 4_5 4_6 4_7 4_8 4_9 4_10
 4_11 4_12 4_13 4_14 4_15 4_16 4_17 4_18 4_19 4_20 5_6 5_7 5_8 5_9 5_10
 5_11 5_12 5_13 5_14 5_15 5_16 5_17 5_18 5_19 5_20 6_7 6_8 6_9 6_10 6_11
 6_12 6_13 6_14 6_15 6_16 6_17 6_18 6_19 6_20 7_8 7_9 7_10 7_11 7_12 7_13
 7_14 7_15 7_16 7_17 7_18 7_19 7_20 8_9 8_10 8_11 8_12 8_13 8_14 8_15 8_16
 8_17 8_18 8_19 8_20 9_10 9_11 9_12 9_13 9_14 9_15 9_16 9_17 9_18 9_19 9_20
 10_11 10_12 10_13 10_14 10_15 10_16 10_17 10_18 10_19 10_20 11_12 11_13
 11_14 11_15 11_16 11_17 11_18 11_19 11_20 12_13 12_14 12_15 12_16 12_17
 12_18 12_19 12_20 13_14 13_15 13_16 13_17 13_18 13_19 13_20 14_15 14_16
 14_17 14_18 14_19 14_20 15_16 15_17 15_18 15_19 15_20 16_17 16_18 16_19
 16_20 17_18 17_19 17_20 18_19 18_20 19_20
End
