gr21_out.sol
# Solution for model TSP
# Objective value = 2707
0_1 0
0_2 0
0_3 0
0_4 0
0_5 0
0_6 1
0_7 0
0_8 0
0_9 0
0_10 0
0_11 1
0_12 0
0_13 0
0_14 0
0_15 0
0_16 0
0_17 0
0_18 0
0_19 0
0_20 0
1_2 1
1_3 0
1_4 0
1_5 0
1_6 0
1_7 0
1_8 0
1_9 0
1_10 0
1_11 0
1_12 0
1_13 0
1_14 0
1_15 0
1_16 0
1_17 0
1_18 0
1_19 0
1_20 1
2_3 0
2_4 0
2_5 0
2_6 0
2_7 0
2_8 1
2_9 0
2_10 0
2_11 0
2_12 0
2_13 0
2_14 0
2_15 0
2_16 0
2_17 0
2_18 0
2_19 0
2_20 0
3_4 0
3_5 0
3_6 0
3_7 0
3_8 0
3_9 0
3_10 1
3_11 1
3_12 0
3_13 0
3_14 0
3_15 0
3_16 0
3_17 0
3_18 0
3_19 0
3_20 0
4_5 0
4_6 0
4_7 0
4_8 1
4_9 0
4_10 0
4_11 0
4_12 0
4_13 0
4_14 0
4_15 1
4_16 0
4_17 0
4_18 0
4_19 0
4_20 0
5_6 0
5_7 1
5_8 0
5_9 0
5_10 0
5_11 0
5_12 0
5_13 0
5_14 0
5_15 1
5_16 0
5_17 0
5_18 0
5_19 0
5_20 0
6_7 1
6_8 0
6_9 0
6_10 0
6_11 0
6_12 0
6_13 0
6_14 0
6_15 0
6_16 0
6_17 0
6_18 0
6_19 0
6_20 0
7_8 0
7_9 0
7_10 0
7_11 0
7_12 0
7_13 0
7_14 0
7_15 0
7_16 0
7_17 0
7_18 0
7_19 0
7_20 0
8_9 0
8_10 0
8_11 0
8_12 0
8_13 0
8_14 0
8_15 0
8_16 0
8_17 0
8_18 0
8_19 0
8_20 0
9_10 0
9_11 0
9_12 0
9_13 0
9_14 0
9_15 0
9_16 1
9_17 1
9_18 0
9_19 0
9_20 0
10_11 0
10_12 0
10_13 0
10_14 0
10_15 0
10_16 0
10_17 0
10_18 0
10_19 1
10_20 0
11_12 0
11_13 0
11_14 0
11_15 0
11_16 0
11_17 0
11_18 0
11_19 0
11_20 0
12_13 1
12_14 0
12_15 0
12_16 0
12_17 1
12_18 0
12_19 0
12_20 0
13_14 1
13_15 0
13_16 0
13_17 0
13_18 0
13_19 0
13_20 0
14_15 0
14_16 0
14_17 0
14_18 0
14_19 0
14_20 1
15_16 0
15_17 0
15_18 0
15_19 0
15_20 0
16_17 0
16_18 1
16_19 0
16_20 0
17_18 0
17_19 0
17_20 0
18_19 1
18_20 0
19_20 0
